# Solution for model GasLib-40
# Objective value = 1.3078950559787970e+01
loadshed[innode_1] 0
loadshed[innode_2] 0
loadshed[innode_3] 0
loadshed[innode_4] 0
loadshed[innode_5] 0
loadshed[innode_6] 0
loadshed[innode_7] 0
loadshed[innode_8] 0
loadshed[source_1] -1.8916745128427581e-01
loadshed[source_2] -2.1180219929610944e-02
loadshed[source_3] 2.9307856867089210e-01
loadshed[sink_1] 0
loadshed[sink_2] 0
loadshed[sink_3] 0
loadshed[sink_4] 0
loadshed[sink_5] 0
loadshed[sink_6] 0
loadshed[sink_7] 0
loadshed[sink_8] 0
loadshed[sink_9] 0
loadshed[sink_10] 0
loadshed[sink_11] 0
loadshed[sink_12] 7.9973200875136619e-01
loadshed[sink_13] 0
loadshed[sink_14] 0
loadshed[sink_15] 0
loadshed[sink_16] 0
loadshed[sink_17] 0
loadshed[sink_18] 0
loadshed[sink_19] 0
loadshed[sink_20] 0
loadshed[sink_21] 0
loadshed[sink_22] 0
loadshed[sink_23] 0
loadshed[sink_24] 0
loadshed[sink_25] 0
loadshed[sink_26] 0
loadshed[sink_27] 0
loadshed[sink_28] 0
loadshed[sink_29] 0
flow[source_1,sink_3] 1.8799581269782317e+02
flow[innode_1,sink_16] 1.6354166666666970e+01
flow[innode_6,sink_13] 2.7217612207843302e+00
flow[sink_13,sink_14] -1.3632405445882338e+01
flow[sink_14,sink_10] -2.9986572112549005e+01
flow[sink_25,sink_26] 1.8250531404135026e+02
flow[sink_26,sink_9] 1.5046271610687955e+02
flow[sink_9,sink_18] 1.3410854944021290e+02
flow[sink_26,sink_4] 1.5688431267804503e+01
flow[sink_4,sink_20] 0
flow[sink_18,sink_6] 1.1775438277354624e+02
flow[sink_25,innode_8] -1.5528747936448679e+02
flow[sink_6,sink_7] 6.8691882773545785e+01
flow[sink_6,sink_22] 3.2708333333333641e+01
flow[sink_7,sink_24] 3.5983549440212037e+01
flow[sink_22,sink_1] 1.6354166666666970e+01
flow[sink_24,sink_21] 1.9629382773545366e+01
flow[sink_21,sink_12] 3.2752161068786991e+00
flow[sink_7,sink_5] 1.6354166666667368e+01
flow[sink_5,sink_17] 0
flow[sink_17,sink_4] 6.6573539886202582e-01
flow[sink_17,sink_8] -1.7019902065528694e+01
flow[sink_3,sink_23] 16.3541666666697
flow[sink_8,sink_20] -3.3374068732195362e+01
flow[sink_25,sink_20] 4.9728235398862068e+01
flow[sink_25,sink_15] -96.0219979631765
flow[sink_15,sink_29] -6.2663538174671373e+01
flow[sink_29,sink_28] 1.6354166666667879e+01
flow[sink_29,sink_2] 6.6066793121838472e+01
flow[sink_2,sink_15] 49.7126264551718
flow[sink_29,innode_7] -1.6143866462984440e+02
flow[innode_4,sink_19] 0
flow[sink_19,innode_3] 3.8575613524971907e+01
flow[innode_4,innode_5] 1.1175740544588292e+02
flow[sink_27,innode_5] -1.1175740544588292e+02
flow[sink_27,sink_19] 9.5403238779216252e+01
flow[sink_10,sink_11] 3.2708333333333641e+01
flow[sink_10,innode_2] -4.0473458587577404e+01
flow[sink_10,innode_3] -3.8575613524971907e+01
flow[innode_6,sink_25] -2.7217612207843302e+00
flow[sink_11,innode_1] 1.6354166666666970e+01
flow[sink_19,innode_2] 4.0473458587577404e+01
flow[source_3,innode_4] 1.1175740544588292e+02
flow[source_2,innode_7] 1.6143866462984440e+02
flow[sink_3,innode_8] 1.5528747936448679e+02
pressure[innode_1] 7.5669763884579382e+01
pressure[innode_2] 7.7960654639395059e+01
pressure[innode_3] 7.7875233311458373e+01
pressure[innode_4] 81.01325
pressure[innode_5] 8.0936377363548075e+01
pressure[innode_6] 7.4393750700776650e+01
pressure[innode_7] 81.01325
pressure[innode_8] 80.3848518151547
pressure[source_1] 81.01325
pressure[source_2] 81.01325
pressure[source_3] 81.01325
pressure[sink_1] 4.2436509457413884e+01
pressure[sink_2] 75.0218517257192
pressure[sink_3] 80.3848518151547
pressure[sink_4] 5.9545340857410167e+01
pressure[sink_5] 3.6793041227092530e+01
pressure[sink_6] 4.4537587067801255e+01
pressure[sink_7] 4.3594611253987246e+01
pressure[sink_8] 6.0212988190710711e+01
pressure[sink_9] 5.2534426719694345e+01
pressure[sink_10] 7.5821465192182927e+01
pressure[sink_11] 7.5669763884579382e+01
pressure[sink_12] 1.01325
pressure[sink_13] 7.4378746086015013e+01
pressure[sink_14] 74.4031424367846
pressure[sink_15] 7.4859550956829466e+01
pressure[sink_16] 74.6481140497617
pressure[sink_17] 5.9570783069160051e+01
pressure[sink_18] 4.7681979688727267e+01
pressure[sink_19] 7.7960654639395059e+01
pressure[sink_20] 6.2538691432770385e+01
pressure[sink_21] 2.1787511441032010e+00
pressure[sink_22] 4.3500278599768890e+01
pressure[sink_23] 8.0220133803494917e+01
pressure[sink_24] 2.3961283204485282e+00
pressure[sink_25] 7.4393750700776650e+01
pressure[sink_26] 6.1540008612271563e+01
pressure[sink_27] 8.0008997403828218e+01
pressure[sink_28] 7.6400115882776575e+01
pressure[sink_29] 7.6695398156393750e+01
interdiction[source_1,sink_3] 0
interdiction[innode_1,sink_16] 0
interdiction[innode_6,sink_13] 0
interdiction[sink_13,sink_14] 0
interdiction[sink_14,sink_10] 0
interdiction[sink_25,sink_26] 0
interdiction[sink_26,sink_9] 0
interdiction[sink_9,sink_18] 0
interdiction[sink_26,sink_4] 0
interdiction[sink_4,sink_20] 1
interdiction[sink_18,sink_6] 0
interdiction[sink_25,innode_8] 0
interdiction[sink_6,sink_7] 0
interdiction[sink_6,sink_22] 0
interdiction[sink_7,sink_24] 0
interdiction[sink_22,sink_1] 0
interdiction[sink_24,sink_21] 0
interdiction[sink_21,sink_12] 0
interdiction[sink_7,sink_5] 0
interdiction[sink_5,sink_17] 1
interdiction[sink_17,sink_4] 0
interdiction[sink_17,sink_8] 0
interdiction[sink_3,sink_23] 0
interdiction[sink_8,sink_20] 0
interdiction[sink_25,sink_20] 0
interdiction[sink_25,sink_15] 0
interdiction[sink_15,sink_29] 0
interdiction[sink_29,sink_28] 0
interdiction[sink_29,sink_2] 0
interdiction[sink_2,sink_15] 0
interdiction[sink_29,innode_7] 0
interdiction[innode_4,sink_19] 1
interdiction[sink_19,innode_3] 0
interdiction[innode_4,innode_5] 0
interdiction[sink_27,innode_5] 0
interdiction[sink_27,sink_19] 0
interdiction[sink_10,sink_11] 0
interdiction[sink_10,innode_2] 0
interdiction[sink_10,innode_3] 0
interdiction[innode_6,sink_25] 0
interdiction[sink_11,innode_1] 0
interdiction[sink_19,innode_2] 0
interdiction[source_3,innode_4] 0
interdiction[source_2,innode_7] 0
interdiction[sink_3,innode_8] 0
WCcheckFlow[source_1,sink_3] 39
WCcheckFlow[innode_1,sink_16] 1
WCcheckFlow[innode_6,sink_13] 13
WCcheckFlow[sink_13,sink_14] 12
WCcheckFlow[sink_14,sink_10] 11
WCcheckFlow[sink_25,sink_26] 15
WCcheckFlow[sink_26,sink_9] 10
WCcheckFlow[sink_9,sink_18] 9
WCcheckFlow[sink_26,sink_4] 4
WCcheckFlow[sink_4,sink_20] 0
WCcheckFlow[sink_18,sink_6] 8
WCcheckFlow[sink_25,innode_8] -36
WCcheckFlow[sink_6,sink_7] 5
WCcheckFlow[sink_6,sink_22] 2
WCcheckFlow[sink_7,sink_24] 3
WCcheckFlow[sink_22,sink_1] 1
WCcheckFlow[sink_24,sink_21] 2
WCcheckFlow[sink_21,sink_12] 1
WCcheckFlow[sink_7,sink_5] 1
WCcheckFlow[sink_5,sink_17] 0
WCcheckFlow[sink_17,sink_4] -3
WCcheckFlow[sink_17,sink_8] 2
WCcheckFlow[sink_3,sink_23] 1
WCcheckFlow[sink_8,sink_20] 1
WCcheckFlow[sink_25,sink_20] 0
WCcheckFlow[sink_25,sink_15] 6
WCcheckFlow[sink_15,sink_29] 5
WCcheckFlow[sink_29,sink_28] 1
WCcheckFlow[sink_29,sink_2] 1
WCcheckFlow[sink_2,sink_15] 0
WCcheckFlow[sink_29,innode_7] 2
WCcheckFlow[innode_4,sink_19] 0
WCcheckFlow[sink_19,innode_3] -5
WCcheckFlow[innode_4,innode_5] -2
WCcheckFlow[sink_27,innode_5] 3
WCcheckFlow[sink_27,sink_19] -4
WCcheckFlow[sink_10,sink_11] 3
WCcheckFlow[sink_10,innode_2] 1
WCcheckFlow[sink_10,innode_3] 6
WCcheckFlow[innode_6,sink_25] -14
WCcheckFlow[sink_11,innode_1] 2
WCcheckFlow[sink_19,innode_2] 0
WCcheckFlow[source_3,innode_4] -1
WCcheckFlow[source_2,innode_7] -1
WCcheckFlow[sink_3,innode_8] 37
